NAME : gr120
TYPE : OP
DIMENSION : 120
COST_LIMIT : 3471
ROUTE_NODES : 74
ROUTE_SCORE : 74
ROUTE_COST : 3447
NODE_SEQUENCE_SECTION
1
76
29
30
32
92
28
45
78
94
81
22
85
18
19
25
108
43
65
69
113
20
118
49
17
42
98
50
46
44
75
14
87
56
7
38
103
119
3
80
27
5
63
73
57
67
37
62
99
104
36
84
6
55
89
110
101
102
48
47
71
26
34
116
70
8
54
90
96
111
24
60
16
61
-1
DEPOT_SECTION
1
-1
EOF
